Starting to solve
c stats 0;117;0.050322;-1;131391;703680;-1;-1;-1;-1;-1;-1;-1;-1;
v 
Violated Soft Clauses (violated/total): (30/37)
s SATISFIABLE
Starting to solve
c stats 0;222;0.925636;-1;924783;3556395;-1;-1;-1;-1;-1;-1;-1;-1;
v 
Violated Soft Clauses (violated/total): (72/82)
s SATISFIABLE
Starting to solve
c stats 0;248;1.46292;-1;1223115;5960643;-1;-1;-1;-1;-1;-1;-1;-1;
v 
Violated Soft Clauses (violated/total): (82/88)
s SATISFIABLE
Starting to solve
c stats 0;357;152.837;-1;3710406;14414235;-1;-1;-1;-1;-1;-1;-1;-1;
v 
Violated Soft Clauses (violated/total): (142/151)
s SATISFIABLE
Starting to solve
c stats 0;480;3.12574;-1;3535238;16200714;-1;-1;-1;-1;-1;-1;-1;-1;
v 
Violated Soft Clauses (violated/total): (141/170)
s SATISFIABLE
Starting to solve
c stats 0;482;3.4415;-1;4652421;18665275;-1;-1;-1;-1;-1;-1;-1;-1;
v 
Violated Soft Clauses (violated/total): (142/182)
s SATISFIABLE
Starting to solve
c stats 0;576;16.7771;-1;9835793;38762136;-1;-1;-1;-1;-1;-1;-1;-1;
v 
Violated Soft Clauses (violated/total): (222/246)
s SATISFIABLE
======================================================================
                            SORTER + LOG
======================================================================
Starting to solve
c stats 0;117;0.062762;-1;131941;704130;-1;-1;-1;-1;-1;-1;-1;-1;
v 
Violated Soft Clauses (violated/total): (27/37)
s SATISFIABLE
Starting to solve
c stats 0;222;0.578519;-1;926208;3556120;-1;-1;-1;-1;-1;-1;-1;-1;
v 
Violated Soft Clauses (violated/total): (70/82)
s SATISFIABLE
Starting to solve
c stats 0;248;2.15468;-1;1224765;5961218;-1;-1;-1;-1;-1;-1;-1;-1;
v 
Violated Soft Clauses (violated/total): (87/88)
s SATISFIABLE
Starting to solve
c stats 0;357;672.4;-1;3713081;14412135;-1;-1;-1;-1;-1;-1;-1;-1;
v 
Violated Soft Clauses (violated/total): (142/151)
s SATISFIABLE
Starting to solve
c stats 0;480;3.28304;-1;3537838;16200039;-1;-1;-1;-1;-1;-1;-1;-1;
v 
Violated Soft Clauses (violated/total): (134/170)
s SATISFIABLE
Starting to solve
c stats 0;482;7.10549;-1;4655646;18665275;-1;-1;-1;-1;-1;-1;-1;-1;
v 
Violated Soft Clauses (violated/total): (153/182)
s SATISFIABLE
Starting to solve
c stats 0;576;14.4187;-1;9840268;38760036;-1;-1;-1;-1;-1;-1;-1;-1;
v 
Violated Soft Clauses (violated/total): (226/246)
s SATISFIABLE
======================================================================
                            SORTER + LADDER
======================================================================
Starting to solve
c stats 0;117;0.196648;-1;132166;703705;-1;-1;-1;-1;-1;-1;-1;-1;
v 
Violated Soft Clauses (violated/total): (37/37)
s SATISFIABLE
Starting to solve
c stats 0;222;0.508425;-1;927433;3553195;-1;-1;-1;-1;-1;-1;-1;-1;
v 
Violated Soft Clauses (violated/total): (63/82)
s SATISFIABLE
Starting to solve
c stats 0;248;3.73225;-1;1225965;5958443;-1;-1;-1;-1;-1;-1;-1;-1;
v 
Violated Soft Clauses (violated/total): (87/88)
s SATISFIABLE
Starting to solve
=================================================================
============================>TIMEOUT<============================
=================================================================
Starting to solve
c stats 0;480;5.56442;-1;3540088;16194739;-1;-1;-1;-1;-1;-1;-1;-1;
v 
Violated Soft Clauses (violated/total): (146/170)
s SATISFIABLE
Starting to solve
c stats 0;482;7.64661;-1;4658321;18657900;-1;-1;-1;-1;-1;-1;-1;-1;
v 
Violated Soft Clauses (violated/total): (159/182)
s SATISFIABLE
Starting to solve
c stats 0;576;49.126;-1;9844718;38749361;-1;-1;-1;-1;-1;-1;-1;-1;
v 
Violated Soft Clauses (violated/total): (236/246)
s SATISFIABLE
======================================================================
                            SORTER + HEULE
======================================================================
Starting to solve
c stats 0;117;0.159397;-1;131841;703380;-1;-1;-1;-1;-1;-1;-1;-1;
v 
Violated Soft Clauses (violated/total): (37/37)
s SATISFIABLE
Starting to solve
c stats 0;222;0.917503;-1;927283;3553045;-1;-1;-1;-1;-1;-1;-1;-1;
v 
Violated Soft Clauses (violated/total): (75/82)
s SATISFIABLE
Starting to solve
c stats 0;248;2.9977;-1;1225615;5958093;-1;-1;-1;-1;-1;-1;-1;-1;
v 
Violated Soft Clauses (violated/total): (88/88)
s SATISFIABLE
Starting to solve
c stats 0;357;278.459;-1;3715756;14405335;-1;-1;-1;-1;-1;-1;-1;-1;
v 
Violated Soft Clauses (violated/total): (142/151)
s SATISFIABLE
Starting to solve
c stats 0;480;3.45487;-1;3539588;16194239;-1;-1;-1;-1;-1;-1;-1;-1;
v 
Violated Soft Clauses (violated/total): (141/170)
s SATISFIABLE
Starting to solve
c stats 0;482;8.40782;-1;4657946;18657525;-1;-1;-1;-1;-1;-1;-1;-1;
v 
Violated Soft Clauses (violated/total): (163/182)
s SATISFIABLE
Starting to solve
c stats 0;576;64.6917;-1;9844718;38749361;-1;-1;-1;-1;-1;-1;-1;-1;
v 
Violated Soft Clauses (violated/total): (245/246)
s SATISFIABLE
======================================================================
                            TOTALIZER + QUAD
======================================================================
Starting to solve
c stats 0;117;0.056638;-1;131349;703666;-1;-1;-1;-1;-1;-1;-1;-1;
v 
Violated Soft Clauses (violated/total): (26/37)
s SATISFIABLE
Starting to solve
c stats 0;222;0.604074;-1;924807;3556497;-1;-1;-1;-1;-1;-1;-1;-1;
v 
Violated Soft Clauses (violated/total): (71/82)
s SATISFIABLE
Starting to solve
c stats 0;248;0.909801;-1;1223085;5960705;-1;-1;-1;-1;-1;-1;-1;-1;
v 
Violated Soft Clauses (violated/total): (70/88)
s SATISFIABLE
Starting to solve
c stats 0;357;295.229;-1;3710472;14414410;-1;-1;-1;-1;-1;-1;-1;-1;
v 
Violated Soft Clauses (violated/total): (141/151)
s SATISFIABLE
Starting to solve
c stats 0;480;3.04247;-1;3535238;16200714;-1;-1;-1;-1;-1;-1;-1;-1;
v 
Violated Soft Clauses (violated/total): (141/170)
s SATISFIABLE
Starting to solve
c stats 0;482;4.04564;-1;4652523;18665548;-1;-1;-1;-1;-1;-1;-1;-1;
v 
Violated Soft Clauses (violated/total): (145/182)
s SATISFIABLE
Starting to solve
c stats 0;576;16.5843;-1;9835793;38762136;-1;-1;-1;-1;-1;-1;-1;-1;
v 
Violated Soft Clauses (violated/total): (222/246)
s SATISFIABLE
======================================================================
                            TOTALIZER + QUAD
======================================================================
Starting to solve
c stats 0;117;0.078597;-1;131899;704116;-1;-1;-1;-1;-1;-1;-1;-1;
v 
Violated Soft Clauses (violated/total): (34/37)
s SATISFIABLE
Starting to solve
c stats 0;222;0.50971;-1;926232;3556222;-1;-1;-1;-1;-1;-1;-1;-1;
v 
Violated Soft Clauses (violated/total): (71/82)
s SATISFIABLE
Starting to solve
c stats 0;248;1.95489;-1;1224735;5961280;-1;-1;-1;-1;-1;-1;-1;-1;
v 
Violated Soft Clauses (violated/total): (87/88)
s SATISFIABLE
Starting to solve
c stats 0;357;1444.17;-1;3713147;14412310;-1;-1;-1;-1;-1;-1;-1;-1;
v 
Violated Soft Clauses (violated/total): (142/151)
s SATISFIABLE
Starting to solve
c stats 0;480;3.33874;-1;3537838;16200039;-1;-1;-1;-1;-1;-1;-1;-1;
v 
Violated Soft Clauses (violated/total): (134/170)
s SATISFIABLE
Starting to solve
c stats 0;482;4.24031;-1;4655748;18665548;-1;-1;-1;-1;-1;-1;-1;-1;
v 
Violated Soft Clauses (violated/total): (155/182)
s SATISFIABLE
Starting to solve
c stats 0;576;14.0485;-1;9840268;38760036;-1;-1;-1;-1;-1;-1;-1;-1;
v 
Violated Soft Clauses (violated/total): (226/246)
s SATISFIABLE
======================================================================
                            TOTALIZER + QUAD
======================================================================
Starting to solve
c stats 0;117;0.208494;-1;132124;703691;-1;-1;-1;-1;-1;-1;-1;-1;
v 
Violated Soft Clauses (violated/total): (35/37)
s SATISFIABLE
Starting to solve
c stats 0;222;0.513346;-1;927457;3553297;-1;-1;-1;-1;-1;-1;-1;-1;
v 
Violated Soft Clauses (violated/total): (61/82)
s SATISFIABLE
Starting to solve
c stats 0;248;6.2141;-1;1225935;5958505;-1;-1;-1;-1;-1;-1;-1;-1;
v 
Violated Soft Clauses (violated/total): (88/88)
s SATISFIABLE
Starting to solve
c stats 0;357;419.351;-1;3715947;14405635;-1;-1;-1;-1;-1;-1;-1;-1;
v 
Violated Soft Clauses (violated/total): (142/151)
s SATISFIABLE
Starting to solve
c stats 0;480;5.45623;-1;3540088;16194739;-1;-1;-1;-1;-1;-1;-1;-1;
v 
Violated Soft Clauses (violated/total): (146/170)
s SATISFIABLE
Starting to solve
c stats 0;482;33.9633;-1;4658423;18658173;-1;-1;-1;-1;-1;-1;-1;-1;
v 
Violated Soft Clauses (violated/total): (178/182)
s SATISFIABLE
Starting to solve
c stats 0;576;49.3167;-1;9844718;38749361;-1;-1;-1;-1;-1;-1;-1;-1;
v 
Violated Soft Clauses (violated/total): (236/246)
s SATISFIABLE
======================================================================
                            TOTALIZER + HEULE
======================================================================
Starting to solve
c stats 0;117;0.055735;-1;131799;703366;-1;-1;-1;-1;-1;-1;-1;-1;
v 
Violated Soft Clauses (violated/total): (27/37)
s SATISFIABLE
Starting to solve
c stats 0;222;1.56195;-1;927307;3553147;-1;-1;-1;-1;-1;-1;-1;-1;
v 
Violated Soft Clauses (violated/total): (78/82)
s SATISFIABLE
Starting to solve
c stats 0;248;1.71127;-1;1225585;5958155;-1;-1;-1;-1;-1;-1;-1;-1;
v 
Violated Soft Clauses (violated/total): (87/88)
s SATISFIABLE
Starting to solve
c stats 0;357;1496.88;-1;3715822;14405510;-1;-1;-1;-1;-1;-1;-1;-1;
v 
Violated Soft Clauses (violated/total): (142/151)
s SATISFIABLE
Starting to solve
c stats 0;480;3.46646;-1;3539588;16194239;-1;-1;-1;-1;-1;-1;-1;-1;
v 
Violated Soft Clauses (violated/total): (141/170)
s SATISFIABLE
Starting to solve
c stats 0;482;4.75638;-1;4658048;18657798;-1;-1;-1;-1;-1;-1;-1;-1;
v 
Violated Soft Clauses (violated/total): (148/182)
s SATISFIABLE
Starting to solve
c stats 0;576;64.4662;-1;9844718;38749361;-1;-1;-1;-1;-1;-1;-1;-1;
v 
Violated Soft Clauses (violated/total): (245/246)
s SATISFIABLE
